\* Source Pyomo model name=unknown *\

min 
x25:
+3.5 x1
+9 x10
+9 x11
+9 x12
+3.5 x2
+3.5 x3
+5 x4
+5 x5
+5 x6
+7.5 x7
+7.5 x8
+7.5 x9

s.t.

c_l_x26_:
+1 x1
+1 x10
+1 x11
+1 x12
+1 x2
+1 x3
+1 x4
+1 x5
+1 x6
+1 x7
+1 x8
+1 x9
>= 10

c_l_x27_:
+1 x1
+1 x10
+1 x4
+1 x7
>= 1

c_l_x28_:
+1 x11
+1 x2
+1 x5
+1 x8
>= 1

c_l_x29_:
+1 x12
+1 x3
+1 x6
+1 x9
>= 1

c_u_x30_:
+1 x1
+1 x10
+1 x4
+1 x7
<= 6

c_u_x31_:
+1 x11
+1 x2
+1 x5
+1 x8
<= 6

c_u_x32_:
+1 x12
+1 x3
+1 x6
+1 x9
<= 6

c_u_x33_:
+0.5 x1
-0.5 x10
-0.5 x4
-0.5 x7
<= 0

c_u_x34_:
-1 x11
+0 x2
-1 x5
-1 x8
<= 0

c_u_x35_:
-1 x12
+0 x3
-1 x6
-1 x9
<= 0

c_u_x36_:
-1 x1
-1 x10
+0 x4
-1 x7
<= 0

c_u_x37_:
-1 x11
-1 x2
+0 x5
-1 x8
<= 0

c_u_x38_:
-0.80000000000000004 x12
-0.80000000000000004 x3
+0.19999999999999996 x6
-0.80000000000000004 x9
<= 0

c_u_x39_:
-1 x1
-1 x10
-1 x4
+0 x7
<= 0

c_u_x40_:
-1 x11
-1 x2
-1 x5
+0 x8
<= 0

c_u_x41_:
-0.20000000000000001 x12
-0.20000000000000001 x3
-0.20000000000000001 x6
+0.80000000000000004 x9
<= 0

c_u_x42_:
-1 x1
+0 x10
-1 x4
-1 x7
<= 0

c_u_x43_:
+0 x11
-1 x2
-1 x5
-1 x8
<= 0

c_u_x44_:
+0.5 x12
-0.5 x3
-0.5 x6
-0.5 x9
<= 0

c_l_x45_:
+1 x1
>= 0

c_l_x46_:
+1 x2
>= 0

c_u_x47_:
+0.10000000000000001 x12
-0.90000000000000002 x3
+0.10000000000000001 x6
+0.10000000000000001 x9
<= 0

c_u_x48_:
+0.14999999999999999 x1
+0.14999999999999999 x10
-0.84999999999999998 x4
+0.14999999999999999 x7
<= 0

c_u_x49_:
+0.29999999999999999 x11
+0.29999999999999999 x2
-0.69999999999999996 x5
+0.29999999999999999 x8
<= 0

c_l_x50_:
+1 x6
>= 0

c_u_x51_:
+0.10000000000000001 x1
+0.10000000000000001 x10
+0.10000000000000001 x4
-0.90000000000000002 x7
<= 0

c_u_x52_:
+0.20000000000000001 x11
+0.20000000000000001 x2
+0.20000000000000001 x5
-0.80000000000000004 x8
<= 0

c_l_x53_:
+1 x9
>= 0

c_l_x54_:
+1 x10
>= 0

c_u_x55_:
-0.69999999999999996 x11
+0.29999999999999999 x2
+0.29999999999999999 x5
+0.29999999999999999 x8
<= 0

c_l_x56_:
+1 x12
>= 0

c_u_x57_:
+2 x1
-2 x10
+1 x4
+0 x7
<= 0

c_u_x58_:
-2 x11
+2 x2
+1 x5
+0 x8
<= 0

c_u_x59_:
-2 x12
+2 x3
+1 x6
+0 x9
<= 0

c_u_x60_:
+1 x13
+1 x14
+1 x15
<= 2

c_u_x61_:
+1 x16
+1 x17
+1 x18
<= 2

c_u_x62_:
+1 x19
+1 x20
+1 x21
<= 2

c_u_x63_:
+1 x22
+1 x23
+1 x24
<= 2

c_l_x64_:
+1 x1
>= 0

c_l_x65_:
+1 x2
>= 0

c_l_x66_:
+1 x3
>= 0

c_l_x67_:
+1 x4
>= 0

c_l_x68_:
+1 x5
>= 0

c_l_x69_:
+1 x6
>= 0

c_l_x70_:
+1 x7
>= 0

c_l_x71_:
+1 x8
>= 0

c_l_x72_:
+1 x9
>= 0

c_l_x73_:
+1 x10
>= 0

c_l_x74_:
+1 x11
>= 0

c_l_x75_:
+1 x12
>= 0

